n_res = 4;
rc = [ 24, 32, 32, 23 ];
n_tasks = 15;
d = [ 4, 4, 1, 3, 125, 75, 25, 125, 75, 25, 200, 6, 5, 8, 3 ];
rr = [| 9, 10, 8, 1, 2, 1, 4, 8, 2, 2, 3, 9, 2, 2, 5
      | 1, 4, 9, 2, 2, 1, 10, 10, 2, 3, 3, 8, 1, 3, 8
      | 3, 5, 9, 9, 8, 4, 9, 4, 3, 6, 1, 1, 7, 10, 3
      | 8, 10, 10, 8, 5, 5, 4, 4, 9, 4, 10, 1, 8, 4, 2 |];
suc = [ { 4 },
       { 5, 11 },
       { 8, 12 },
       { 6, 13, 15 },
       { 7, 9, 10 },
       { 8, 10 },
       { 12 },
       {  },
       { 13, 15 },
       { 12 },
       { 14 },
       { 14 },
       { 14 },
       {  },
       {  } ];
